unsat
(define-fun f ((x0 (BitVec 64)) (x1 (BitVec 64)) (x2 (BitVec 64))) (BitVec 64) (bvadd x2 (bvmul x0 x1)))
(define-fun f ((x0 (BitVec 64)) (x1 (BitVec 64)) (x2 (BitVec 64))) (BitVec 64) (bvadd x2 (bvmul x0 x1)))
int-arith18.sl running time : 0 m 20.245156284 s
times : 20.245156284
